1 -1 2 0
1 -1 -3 0
1 -1 -4 0
1 -5 6 0
1 7 -8 0
1 -7 -9 0
1 -7 10 0
1 2 11 0
1 -2 12 0
1 -2 -7 0
1 -2 -1 0
1 -4 -11 0
1 -4 13 0
1 4 14 0
1 15 -11 0
1 -15 -16 0
1 15 -17 0
1 15 18 0
1 -6 17 0
1 6 -15 0
1 -6 18 0
1 6 3 0
1 14 -19 0
1 14 2 0
1 -20 -17 0
1 20 14 0
1 21 22 0
1 21 12 0
1 -21 -2 0
1 -12 -23 0
1 12 2 0
1 12 -9 0
1 12 -10 0
1 -12 -24 0
1 10 -25 0
1 10 -7 0
1 10 26 0
1 22 -27 0
1 -22 28 0
1 22 29 0
1 22 10 0
1 -9 -19 0
1 -9 20 0
1 -9 7 0
1 9 28 0
1 9 13 0
1 -19 -12 0
1 -19 -20 0
1 -19 -21 0
1 29 -25 0
1 -29 -23 0
1 29 24 0
1 -25 29 0
1 25 10 0
1 25 30 0
1 31 -32 0
1 -31 10 0
1 31 24 0
1 -31 -30 0
1 33 34 0
1 33 24 0
1 -33 -30 0
1 30 35 0
1 30 29 0
1 36 12 0
1 -24 12 0
1 24 -28 0
1 23 -25 0
1 -23 -12 0
1 -23 37 0
1 -23 24 0
1 23 -38 0
1 23 -26 0
1 -39 -40 0
1 39 41 0
1 -39 3 0
1 -39 42 0
1 43 -41 0
1 44 8 0
1 44 45 0
1 -44 46 0
1 -44 47 0
1 -8 48 0
1 8 -49 0
1 -8 46 0
1 -41 -17 0
1 -41 -50 0
1 -51 41 0
1 -51 50 0
1 40 52 0
1 -40 53 0
1 40 54 0
1 -40 8 0
1 -40 50 0
1 -40 -39 0
1 55 -43 0
1 -18 15 0
1 -18 56 0
1 17 -41 0
1 17 -20 0
1 -17 57 0
1 -17 -18 0
1 17 6 0
1 58 -16 0
1 58 -48 0
1 -58 51 0
1 -58 45 0
1 -58 -21 0
1 -58 46 0
1 -58 6 0
1 16 59 0
1 16 58 0
1 57 60 0
1 -57 16 0
1 57 61 0
1 -57 -32 0
1 -57 -44 0
1 -46 -11 0
1 -46 -16 0
1 -46 -57 0
1 -46 32 0
1 -46 13 0
1 -46 58 0
1 -46 -18 0
1 -48 -62 0
1 -48 63 0
1 -48 -16 0
1 48 -64 0
1 -48 17 0
1 48 -8 0
1 -48 -65 0
1 48 18 0
1 -48 -44 0
1 45 -17 0
1 -45 8 0
1 45 58 0
1 13 -15 0
1 -13 -9 0
1 -13 -50 0
1 11 19 0
1 -11 63 0
1 -11 -59 0
1 11 -2 0
1 11 13 0
1 11 -66 0
1 -32 67 0
1 32 65 0
1 -32 68 0
1 -32 -66 0
1 32 -69 0
1 34 19 0
1 -34 62 0
1 34 32 0
1 34 69 0
1 59 16 0
1 59 -70 0
1 -59 71 0
1 -59 -72 0
1 -59 13 0
1 59 73 0
1 -66 -11 0
1 66 16 0
1 66 59 0
1 66 -28 0
1 74 -34 0
1 74 32 0
1 -68 13 0
1 -68 -75 0
1 -68 -73 0
1 -28 76 0
1 -28 19 0
1 28 23 0
1 28 -77 0
1 -28 9 0
1 -28 -78 0
1 -28 -24 0
1 -28 -66 0
1 -26 60 0
1 -26 19 0
1 26 59 0
1 26 9 0
1 -26 10 0
1 26 -24 0
1 26 66 0
1 -26 -69 0
1 71 79 0
1 71 -78 0
1 71 -66 0
1 -71 69 0
1 78 2 0
1 78 26 0
1 -76 -80 0
1 -76 34 0
1 -76 -81 0
1 -76 -4 0
1 67 82 0
1 67 70 0
1 67 15 0
1 67 32 0
1 67 83 0
1 -69 -84 0
1 -69 67 0
1 69 -28 0
1 -69 83 0
1 69 85 0
1 -69 73 0
1 69 -86 0
1 69 26 0
1 35 76 0
1 35 -78 0
1 -35 24 0
1 -35 30 0
1 87 76 0
1 -87 -23 0
1 87 -88 0
1 81 88 0
1 81 -89 0
1 90 -76 0
1 90 91 0
1 90 88 0
1 90 85 0
1 -92 -93 0
1 -92 -27 0
1 -92 94 0
1 -92 81 0
1 92 -95 0
1 -92 -96 0
1 -92 -87 0
1 -27 -94 0
1 -27 97 0
1 -27 90 0
1 -88 98 0
1 -88 93 0
1 88 38 0
1 -98 -81 0
1 98 -99 0
1 -94 91 0
1 94 -84 0
1 -94 89 0
1 97 -91 0
1 97 -92 0
1 -97 89 0
1 100 -92 0
1 -100 -89 0
1 95 -37 0
1 -95 101 0
1 101 -102 0
1 -101 94 0
1 101 81 0
1 -101 95 0
1 -101 -97 0
1 -91 103 0
1 -91 -95 0
1 -91 -97 0
1 91 -101 0
1 -89 37 0
1 89 103 0
1 -89 -104 0
1 -89 -105 0
1 37 -102 0
1 37 106 0
1 -37 -107 0
1 -37 -94 0
1 -37 -103 0
1 37 -104 0
1 -42 -108 0
1 108 -109 0
1 -108 110 0
1 108 42 0
1 47 44 0
1 47 111 0
1 -49 110 0
1 49 112 0
1 -112 109 0
1 -112 56 0
1 -112 -47 0
1 109 -113 0
1 109 -42 0
1 -110 -47 0
1 114 -115 0
1 114 116 0
1 -114 117 0
1 -114 -118 0
1 -114 119 0
1 -114 -47 0
1 -56 40 0
1 -56 -109 0
1 -56 -120 0
1 -56 -119 0
1 54 109 0
1 54 -121 0
1 -54 -112 0
1 -113 -122 0
1 -113 -121 0
1 113 123 0
1 113 -124 0
1 -53 -122 0
1 53 125 0
1 -53 -126 0
1 -53 -123 0
1 127 62 0
1 -127 -49 0
1 127 -65 0
1 -126 -63 0
1 -126 -54 0
1 -126 113 0
1 126 -56 0
1 120 128 0
1 -120 -129 0
1 -120 -130 0
1 -120 -49 0
1 120 131 0
1 -120 117 0
1 120 -113 0
1 -121 -129 0
1 121 -132 0
1 -121 -113 0
1 50 41 0
1 -50 -13 0
1 50 -127 0
1 -50 124 0
1 -63 -48 0
1 63 130 0
1 -63 -123 0
1 -63 -51 0
1 63 -45 0
1 -63 -127 0
1 65 -122 0
1 65 52 0
1 65 -48 0
1 -65 126 0
1 -65 45 0
1 62 34 0
1 -62 129 0
1 62 48 0
1 62 -45 0
1 -122 62 0
1 -122 53 0
1 -122 -123 0
1 123 -63 0
1 123 79 0
1 123 77 0
1 123 50 0
1 123 -113 0
1 -124 -128 0
1 -124 63 0
1 124 -133 0
1 -124 -65 0
1 -124 50 0
1 -134 53 0
1 134 133 0
1 134 135 0
1 -77 -60 0
1 77 -74 0
1 77 131 0
1 -77 45 0
1 77 -46 0
1 60 122 0
1 60 57 0
1 -60 136 0
1 -60 -45 0
1 60 -26 0
1 79 -123 0
1 -79 -137 0
1 -138 -122 0
1 -138 -139 0
1 -138 -61 0
1 -138 -74 0
1 -138 79 0
1 138 -140 0
1 138 38 0
1 -138 -141 0
1 139 -62 0
1 -139 73 0
1 136 60 0
1 136 -142 0
1 -136 79 0
1 -52 62 0
1 -52 -143 0
1 -52 79 0
1 52 -65 0
1 137 144 0
1 -137 -133 0
1 -137 79 0
1 137 77 0
1 137 55 0
1 137 -145 0
1 137 -65 0
1 137 -135 0
1 137 -138 0
1 -70 61 0
1 70 133 0
1 70 67 0
1 70 136 0
1 70 -69 0
1 73 59 0
1 -73 -135 0
1 82 75 0
1 82 146 0
1 -85 -61 0
1 -85 136 0
1 -85 140 0
1 -85 147 0
1 85 -148 0
1 85 69 0
1 -61 -140 0
1 -61 -57 0
1 -61 149 0
1 61 79 0
1 61 99 0
1 61 83 0
1 -61 -73 0
1 61 -138 0
1 140 -61 0
1 -140 70 0
1 140 150 0
1 -140 -83 0
1 -64 151 0
1 -64 82 0
1 64 150 0
1 -64 152 0
1 -146 153 0
1 146 79 0
1 146 -150 0
1 -146 -152 0
1 -146 -73 0
1 146 138 0
1 84 -94 0
1 -84 78 0
1 84 -83 0
1 83 76 0
1 83 84 0
1 -83 -61 0
1 -83 -154 0
1 83 -78 0
1 -83 -148 0
1 -155 61 0
1 155 -154 0
1 -155 156 0
1 155 99 0
1 155 140 0
1 99 -80 0
1 99 156 0
1 99 -157 0
1 72 106 0
1 72 -99 0
1 148 158 0
1 148 106 0
1 148 -72 0
1 148 -159 0
1 148 -104 0
1 148 85 0
1 148 -66 0
1 154 158 0
1 -154 -160 0
1 -154 75 0
1 -154 -82 0
1 154 -159 0
1 -154 150 0
1 -154 -99 0
1 -75 -84 0
1 -93 -80 0
1 -93 -37 0
1 -93 -92 0
1 -93 -86 0
1 104 -72 0
1 -106 80 0
1 106 72 0
1 -106 -161 0
1 106 162 0
1 106 -156 0
1 -106 163 0
1 -106 -96 0
1 -106 -89 0
1 -162 37 0
1 162 164 0
1 156 -80 0
1 156 -155 0
1 156 -165 0
1 -156 -78 0
1 -156 166 0
1 156 -167 0
1 -80 -102 0
1 80 168 0
1 80 155 0
1 80 169 0
1 -161 158 0
1 161 -67 0
1 161 159 0
1 161 -169 0
1 -161 -86 0
1 -86 158 0
1 -86 -155 0
1 -86 -165 0
1 -86 170 0
1 -86 162 0
1 -86 -161 0
1 -86 169 0
1 102 -80 0
1 103 -102 0
1 -103 -171 0
1 103 37 0
1 103 159 0
1 -103 -96 0
1 167 80 0
1 -167 171 0
1 -167 107 0
1 -172 -80 0
1 -172 -173 0
1 -172 174 0
1 -96 -92 0
1 -96 175 0
1 -96 -176 0
1 173 -102 0
1 173 -177 0
1 173 -172 0
1 -173 96 0
1 -163 172 0
1 163 88 0
1 -163 -178 0
1 163 169 0
1 -163 167 0
1 -171 102 0
1 171 -106 0
1 -171 -98 0
1 -171 103 0
1 171 163 0
1 -171 178 0
1 179 180 0
1 179 -177 0
1 -179 -174 0
1 -179 169 0
1 -177 173 0
1 -177 -165 0
1 177 179 0
1 181 173 0
1 181 -96 0
1 182 173 0
1 182 -96 0
1 182 -105 0
1 174 -183 0
1 -174 172 0
1 174 184 0
1 180 174 0
1 -180 185 0
1 180 -167 0
1 105 183 0
1 105 186 0
1 -105 -107 0
1 -105 -184 0
1 105 -187 0
1 105 188 0
1 105 -181 0
1 105 167 0
1 107 -37 0
1 -189 190 0
1 -189 42 0
1 191 -189 0
1 -111 192 0
1 -111 193 0
1 111 47 0
1 -192 194 0
1 192 195 0
1 192 -193 0
1 -192 196 0
1 190 -116 0
1 190 192 0
1 -190 -197 0
1 190 -198 0
1 198 -199 0
1 198 -189 0
1 -194 199 0
1 -194 200 0
1 194 -201 0
1 -194 -202 0
1 -194 -191 0
1 -194 -196 0
1 196 199 0
1 -196 201 0
1 -119 -114 0
1 -119 -116 0
1 119 203 0
1 -116 -195 0
1 -116 204 0
1 118 205 0
1 -118 193 0
1 118 203 0
1 125 114 0
1 -125 53 0
1 -125 -190 0
1 -125 193 0
1 125 -206 0
1 -193 125 0
1 -193 -192 0
1 -193 -207 0
1 -193 132 0
1 193 111 0
1 203 116 0
1 203 192 0
1 -203 132 0
1 203 118 0
1 -203 -119 0
1 195 111 0
1 -204 -208 0
1 -204 -209 0
1 117 193 0
1 117 210 0
1 130 -211 0
1 -130 205 0
1 -130 114 0
1 -130 -112 0
1 -132 205 0
1 -132 212 0
1 -132 121 0
1 132 -193 0
1 132 206 0
1 -132 120 0
1 129 -205 0
1 -129 -212 0
1 -129 -193 0
1 129 210 0
1 129 -206 0
1 129 213 0
1 206 214 0
1 -206 -215 0
1 206 132 0
1 206 -118 0
1 -205 -215 0
1 -205 -132 0
1 205 -141 0
1 -210 -117 0
1 211 216 0
1 -211 217 0
1 211 218 0
1 211 129 0
1 211 132 0
1 211 219 0
1 -131 -212 0
1 131 121 0
1 131 -77 0
1 131 220 0
1 -131 120 0
1 131 124 0
1 128 60 0
1 128 -121 0
1 128 -126 0
1 -128 -134 0
1 -128 213 0
1 -128 127 0
1 215 -205 0
1 215 212 0
1 215 221 0
1 -215 79 0
1 215 -206 0
1 215 124 0
1 -141 -212 0
1 -141 -134 0
1 -141 215 0
1 -141 -124 0
1 213 128 0
1 213 -129 0
1 213 222 0
1 213 215 0
1 -213 -147 0
1 213 -135 0
1 213 141 0
1 212 128 0
1 212 -129 0
1 -212 -144 0
1 -212 133 0
1 -212 147 0
1 220 223 0
1 220 -214 0
1 -220 -132 0
1 220 -219 0
1 -115 -128 0
1 -115 129 0
1 115 141 0
1 133 -52 0
1 133 -70 0
1 -133 214 0
1 133 -213 0
1 133 224 0
1 -135 -52 0
1 135 212 0
1 -135 -213 0
1 144 -225 0
1 -147 52 0
1 147 226 0
1 147 213 0
1 -147 -224 0
1 227 228 0
1 -227 229 0
1 221 228 0
1 -221 153 0
1 -221 -142 0
1 -221 144 0
1 -221 230 0
1 -221 231 0
1 -221 -157 0
1 -221 -152 0
1 221 -147 0
1 221 -135 0
1 224 -228 0
1 -224 -223 0
1 224 -232 0
1 -224 233 0
1 -224 -135 0
1 -226 -121 0
1 226 234 0
1 -226 -215 0
1 -226 -231 0
1 226 147 0
1 226 135 0
1 -142 139 0
1 -142 235 0
1 142 136 0
1 -142 146 0
1 -142 152 0
1 -152 -52 0
1 -152 235 0
1 152 -136 0
1 152 -236 0
1 152 -225 0
1 153 237 0
1 -153 238 0
1 -153 -235 0
1 -153 -239 0
1 153 -227 0
1 -153 -225 0
1 -157 -232 0
1 -157 225 0
1 237 -153 0
1 -237 144 0
1 237 -164 0
1 -237 -150 0
1 237 -147 0
1 -240 -237 0
1 240 142 0
1 240 -241 0
1 -240 164 0
1 240 242 0
1 240 -150 0
1 -240 -157 0
1 225 -243 0
1 -225 153 0
1 -225 142 0
1 225 231 0
1 225 -147 0
1 -235 244 0
1 -235 142 0
1 160 -228 0
1 -160 -239 0
1 160 146 0
1 -150 -61 0
1 -150 104 0
1 -150 -231 0
1 245 -243 0
1 245 149 0
1 -245 240 0
1 245 -75 0
1 164 238 0
1 -164 149 0
1 164 -154 0
1 164 -239 0
1 -164 246 0
1 -164 -75 0
1 -238 158 0
1 238 139 0
1 238 -247 0
1 -238 -170 0
1 238 159 0
1 -238 239 0
1 238 -157 0
1 -239 160 0
1 -239 247 0
1 143 245 0
1 -143 248 0
1 -143 -247 0
1 -143 241 0
1 -143 -164 0
1 145 -244 0
1 145 -153 0
1 145 241 0
1 -145 -249 0
1 158 -102 0
1 158 -244 0
1 -158 -154 0
1 -159 -238 0
1 159 -151 0
1 -159 154 0
1 159 -103 0
1 159 -75 0
1 159 -148 0
1 159 -86 0
1 -250 -251 0
1 250 -239 0
1 -250 -246 0
1 250 252 0
1 250 86 0
1 170 149 0
1 170 -251 0
1 170 246 0
1 -170 86 0
1 149 158 0
1 149 253 0
1 -149 -254 0
1 255 -256 0
1 -255 254 0
1 255 -257 0
1 -151 245 0
1 -151 -253 0
1 151 170 0
1 151 159 0
1 -151 -254 0
1 -151 -258 0
1 151 250 0
1 246 -245 0
1 246 259 0
1 -246 -247 0
1 -246 258 0
1 169 251 0
1 169 -156 0
1 169 -86 0
1 -165 149 0
1 165 177 0
1 165 -156 0
1 -178 -166 0
1 -178 163 0
1 -178 181 0
1 178 -258 0
1 178 -260 0
1 -256 -259 0
1 -256 251 0
1 256 261 0
1 -256 -163 0
1 256 -255 0
1 -256 178 0
1 256 260 0
1 -261 -262 0
1 -261 256 0
1 261 -263 0
1 -261 176 0
1 -260 186 0
1 260 -261 0
1 260 263 0
1 260 176 0
1 -260 -178 0
1 260 -264 0
1 251 -265 0
1 -251 154 0
1 -251 -266 0
1 251 178 0
1 -251 169 0
1 -252 -265 0
1 -176 168 0
1 -176 -107 0
1 -176 -186 0
1 176 261 0
1 176 -163 0
1 176 -260 0
1 186 267 0
1 -186 -171 0
1 186 176 0
1 187 267 0
1 -187 -268 0
1 187 262 0
1 -187 269 0
1 -187 270 0
1 -262 268 0
1 -262 261 0
1 262 175 0
1 -262 105 0
1 166 271 0
1 -166 -178 0
1 168 183 0
1 -168 -272 0
1 -168 273 0
1 168 -184 0
1 168 176 0
1 -168 178 0
1 -269 267 0
1 269 -186 0
1 269 -256 0
1 -269 -161 0
1 -269 274 0
1 269 -176 0
1 267 -275 0
1 267 262 0
1 -267 -186 0
1 -267 176 0
1 267 -178 0
1 184 -268 0
1 -184 180 0
1 -184 263 0
1 -183 268 0
1 -183 -276 0
1 -183 184 0
1 183 105 0
1 -271 277 0
1 271 -278 0
1 277 276 0
1 277 -270 0
1 -175 -183 0
1 175 276 0
1 -175 279 0
1 -175 184 0
1 -276 277 0
1 276 262 0
1 -276 271 0
1 270 280 0
1 -270 271 0
1 270 184 0
1 270 -163 0
1 -270 -187 0
1 270 -281 0
1 -268 277 0
1 -268 -262 0
1 268 280 0
1 268 273 0
1 -268 -184 0
1 279 -276 0
1 -279 185 0
1 282 188 0
1 -283 -175 0
1 283 188 0
1 283 -284 0
1 284 -278 0
1 284 283 0
1 284 -285 0
1 285 -185 0
1 -285 -279 0
1 285 -271 0
1 -285 174 0
1 -185 277 0
1 -185 -286 0
1 185 -271 0
1 185 -287 0
1 -188 -277 0
1 188 -280 0
1 188 -283 0
1 -188 -271 0
1 -188 -105 0
1 188 -284 0
1 278 288 0
1 278 -289 0
1 -278 -279 0
1 -278 -287 0
1 278 -290 0
1 -278 -188 0
1 291 -292 0
1 291 293 0
1 -291 189 0
1 -293 -294 0
1 -295 -294 0
1 -295 -296 0
1 -295 -292 0
1 -295 -297 0
1 -295 298 0
1 -296 294 0
1 -296 -292 0
1 296 297 0
1 -296 -298 0
1 296 299 0
1 296 295 0
1 294 291 0
1 -294 -200 0
1 -294 -293 0
1 -294 300 0
1 297 291 0
1 297 -200 0
1 -298 291 0
1 298 -295 0
1 -301 194 0
1 301 -201 0
1 -301 297 0
1 201 -116 0
1 -201 302 0
1 -201 301 0
1 300 -303 0
1 300 -304 0
1 -300 305 0
1 -300 297 0
1 -300 -118 0
1 200 303 0
1 200 305 0
1 -200 302 0
1 200 -306 0
1 -200 -300 0
1 304 -307 0
1 -304 -308 0
1 -304 199 0
1 -304 -296 0
1 304 -208 0
1 304 -301 0
1 -304 -295 0
1 299 -304 0
1 299 -199 0
1 -299 296 0
1 299 309 0
1 299 301 0
1 303 -201 0
1 -303 -296 0
1 -303 302 0
1 302 -303 0
1 302 309 0
1 199 -304 0
1 -199 -130 0
1 -199 310 0
1 -199 195 0
1 208 311 0
1 208 312 0
1 208 313 0
1 208 195 0
1 208 -306 0
1 311 -310 0
1 311 -208 0
1 -311 314 0
1 -305 -217 0
1 305 311 0
1 -305 199 0
1 -305 315 0
1 -305 207 0
1 -305 312 0
1 305 -197 0
1 312 -315 0
1 312 -316 0
1 -312 -208 0
1 310 -317 0
1 -310 -199 0
1 -310 -309 0
1 310 -197 0
1 -310 318 0
1 -306 -307 0
1 -306 -315 0
1 -306 319 0
1 -207 -305 0
1 207 131 0
1 217 -211 0
1 217 -195 0
1 316 211 0
1 -316 -305 0
1 216 -211 0
1 -216 -320 0
1 -216 -321 0
1 216 314 0
1 313 216 0
1 313 -311 0
1 -313 316 0
1 313 -322 0
1 -323 -216 0
1 -323 207 0
1 323 -208 0
1 323 -324 0
1 -202 -217 0
1 -202 -325 0
1 202 326 0
1 -202 207 0
1 202 314 0
1 202 327 0
1 314 -311 0
1 -314 326 0
1 -214 133 0
1 -214 321 0
1 -214 -210 0
1 214 -206 0
1 -219 320 0
1 219 -321 0
1 219 -210 0
1 -219 -220 0
1 -219 323 0
1 219 -135 0
1 219 318 0
1 -328 144 0
1 328 326 0
1 328 320 0
1 328 -329 0
1 328 -209 0
1 328 -323 0
1 322 218 0
1 322 115 0
1 322 328 0
1 -322 313 0
1 322 -321 0
1 322 -147 0
1 321 -330 0
1 -321 331 0
1 -321 332 0
1 -321 328 0
1 321 316 0
1 -321 -333 0
1 -321 -322 0
1 321 -219 0
1 -330 -331 0
1 330 332 0
1 330 -214 0
1 330 321 0
1 330 322 0
1 330 -219 0
1 320 -334 0
1 -320 -325 0
1 320 214 0
1 -320 -335 0
1 209 -216 0
1 -209 -328 0
1 209 -320 0
1 -209 -336 0
1 223 -329 0
1 -223 337 0
1 -223 213 0
1 236 226 0
1 236 223 0
1 -236 -321 0
1 -236 -329 0
1 -236 152 0
1 -332 -218 0
1 -332 153 0
1 332 334 0
1 332 329 0
1 -332 337 0
1 -332 -224 0
1 232 338 0
1 -232 -339 0
1 -232 -329 0
1 -232 340 0
1 232 222 0
1 -337 243 0
1 337 -338 0
1 337 -341 0
1 -337 342 0
1 -338 -343 0
1 -338 228 0
1 -338 -223 0
1 338 236 0
1 -329 -210 0
1 329 232 0
1 218 -211 0
1 -218 -344 0
1 218 332 0
1 -218 -322 0
1 228 338 0
1 -228 -339 0
1 228 345 0
1 -228 231 0
1 228 -337 0
1 -231 235 0
1 231 -150 0
1 -231 -337 0
1 231 -340 0
1 231 -222 0
1 231 224 0
1 243 -339 0
1 243 -345 0
1 -243 -235 0
1 -341 338 0
1 341 -339 0
1 -341 -230 0
1 -341 164 0
1 222 -244 0
1 -222 332 0
1 222 345 0
1 -222 -231 0
1 -222 346 0
1 345 347 0
1 -345 212 0
1 -345 -348 0
1 -345 -349 0
1 345 241 0
1 345 231 0
1 -345 346 0
1 340 -332 0
1 -340 231 0
1 -340 -350 0
1 339 -351 0
1 -339 115 0
1 -339 -231 0
1 244 235 0
1 244 241 0
1 -244 145 0
1 244 225 0
1 241 235 0
1 241 240 0
1 347 -352 0
1 347 351 0
1 347 353 0
1 -347 143 0
1 -347 234 0
1 -347 -230 0
1 347 145 0
1 -349 -347 0
1 349 -352 0
1 349 230 0
1 349 354 0
1 -349 -233 0
1 -349 229 0
1 229 243 0
1 -230 -347 0
1 -230 -244 0
1 230 -221 0
1 230 355 0
1 230 349 0
1 -230 -341 0
1 -230 -258 0
1 -233 348 0
1 -233 -349 0
1 233 -356 0
1 -233 -346 0
1 234 243 0
1 -234 -357 0
1 -234 -358 0
1 -234 -359 0
1 234 348 0
1 -234 349 0
1 -234 -341 0
1 -234 233 0
1 -247 352 0
1 -247 -151 0
1 -247 -230 0
1 -258 352 0
1 -258 259 0
1 -258 246 0
1 258 229 0
1 -259 -352 0
1 259 151 0
1 259 354 0
1 -259 242 0
1 353 -360 0
1 353 361 0
1 353 -265 0
1 -353 -259 0
1 -353 -242 0
1 -353 -362 0
1 -353 -254 0
1 353 -258 0
1 242 347 0
1 -242 -247 0
1 242 -254 0
1 242 -258 0
1 352 -363 0
1 -352 -364 0
1 352 -365 0
1 -354 -364 0
1 -354 247 0
1 -354 366 0
1 354 365 0
1 354 -258 0
1 254 248 0
1 -254 246 0
1 -254 -252 0
1 -253 255 0
1 -253 357 0
1 253 -251 0
1 -367 249 0
1 265 364 0
1 265 257 0
1 368 -369 0
1 -368 238 0
1 -368 370 0
1 368 371 0
1 -368 -367 0
1 368 -254 0
1 -368 -258 0
1 372 371 0
1 -372 239 0
1 248 369 0
1 -248 -361 0
1 -248 -265 0
1 -248 253 0
1 -248 -371 0
1 -249 -369 0
1 249 361 0
1 -249 -253 0
1 -249 -367 0
1 -263 260 0
1 373 -183 0
1 373 -374 0
1 -373 -375 0
1 373 251 0
1 373 -372 0
1 373 -376 0
1 373 252 0
1 274 368 0
1 -274 372 0
1 -274 -257 0
1 377 -267 0
1 -377 -277 0
1 377 -378 0
1 377 -266 0
1 -377 -372 0
1 377 -376 0
1 375 377 0
1 375 -265 0
1 375 -149 0
1 375 -367 0
1 -375 257 0
1 257 379 0
1 -257 281 0
1 374 377 0
1 -374 373 0
1 -374 380 0
1 374 -371 0
1 376 373 0
1 376 263 0
1 376 -381 0
1 273 -168 0
1 -273 382 0
1 -275 273 0
1 -275 166 0
1 275 257 0
1 -275 -382 0
1 -383 -272 0
1 383 283 0
1 -383 -281 0
1 -281 -272 0
1 281 266 0
1 281 257 0
1 -384 -275 0
1 -384 -377 0
1 -384 -273 0
1 -384 -274 0
1 -384 264 0
1 264 -383 0
1 -264 -384 0
1 264 273 0
1 264 260 0
1 -266 -385 0
1 -266 386 0
1 266 -383 0
1 -266 -281 0
1 382 385 0
1 382 274 0
1 382 -387 0
1 -382 -388 0
1 -382 281 0
1 280 379 0
1 280 389 0
1 290 268 0
1 -290 -276 0
1 290 175 0
1 290 -381 0
1 289 -390 0
1 390 -391 0
1 390 392 0
1 390 -289 0
1 -390 -393 0
1 -393 -394 0
1 -393 -395 0
1 -393 -286 0
1 -393 280 0
1 393 287 0
1 393 390 0
1 -393 -290 0
1 272 -394 0
1 -272 -396 0
1 -272 -287 0
1 -272 -290 0
1 389 -397 0
1 -389 -289 0
1 389 -269 0
1 -389 390 0
1 -391 -397 0
1 391 -289 0
1 -391 -280 0
1 391 398 0
1 -391 -399 0
1 -391 281 0
1 -286 400 0
1 -286 -401 0
1 -286 -188 0
1 286 285 0
1 287 -401 0
1 287 399 0
1 -396 -398 0
1 396 402 0
1 400 -286 0
1 400 -396 0
1 401 394 0
1 -401 -392 0
1 392 -403 0
1 -392 -286 0
1 392 396 0
1 392 401 0
1 -392 287 0
1 -404 -394 0
1 -404 400 0
1 404 405 0
1 -406 400 0
1 406 407 0
1 408 -288 0
1 -409 400 0
1 -409 288 0
1 409 -410 0
1 -411 -406 0
1 -411 396 0
1 411 285 0
1 -405 -404 0
1 -405 395 0
1 -405 411 0
1 -405 409 0
1 -288 -408 0
1 288 404 0
1 288 278 0
1 288 396 0
1 309 -310 0
1 -309 -412 0
1 309 -207 0
1 309 413 0
1 307 -414 0
1 -307 -310 0
1 -307 -302 0
1 -307 -309 0
1 319 -415 0
1 -319 308 0
1 -319 416 0
1 -317 -415 0
1 317 -310 0
1 317 417 0
1 -317 -412 0
1 317 -306 0
1 -414 -294 0
1 -414 -307 0
1 -414 412 0
1 -414 -309 0
1 412 -414 0
1 -412 326 0
1 412 -327 0
1 -412 318 0
1 413 298 0
1 417 -292 0
1 -315 -202 0
1 -315 -214 0
1 315 318 0
1 -326 414 0
1 326 -308 0
1 -326 -418 0
1 326 -419 0
1 -326 -328 0
1 -326 -412 0
1 326 -420 0
1 326 -421 0
1 326 327 0
1 327 -308 0
1 327 -418 0
1 327 202 0
1 327 -420 0
1 -327 -314 0
1 -308 325 0
1 -308 -319 0
1 308 -324 0
1 -416 308 0
1 -416 326 0
1 -416 -315 0
1 -416 -299 0
1 -416 422 0
1 415 423 0
1 -415 -424 0
1 -415 -319 0
1 425 -315 0
1 425 426 0
1 -425 -318 0
1 325 -308 0
1 -325 419 0
1 325 421 0
1 324 -418 0
1 -324 420 0
1 324 421 0
1 -334 419 0
1 334 -421 0
1 336 308 0
1 336 419 0
1 336 -427 0
1 -336 428 0
1 -336 420 0
1 -336 429 0
1 -419 305 0
1 -419 334 0
1 -419 -430 0
1 -419 -336 0
1 419 -327 0
1 -421 -431 0
1 -421 -432 0
1 -421 -331 0
1 421 -325 0
1 421 -327 0
1 418 -433 0
1 418 -325 0
1 -418 420 0
1 418 324 0
1 -420 431 0
1 420 418 0
1 420 424 0
1 331 427 0
1 331 321 0
1 331 -209 0
1 -333 -331 0
1 333 -427 0
1 -333 320 0
1 -333 321 0
1 -333 421 0
1 333 434 0
1 432 218 0
1 432 -427 0
1 -432 -429 0
1 435 436 0
1 -435 427 0
1 -435 329 0
1 435 437 0
1 -435 -421 0
1 -435 429 0
1 428 343 0
1 428 -432 0
1 428 313 0
1 428 438 0
1 -428 -333 0
1 -428 -434 0
1 434 -432 0
1 434 334 0
1 434 -428 0
1 434 -439 0
1 -434 438 0
1 434 -440 0
1 427 -431 0
1 -427 -432 0
1 427 -441 0
1 427 -429 0
1 -429 334 0
1 -429 -430 0
1 429 -336 0
1 -429 314 0
1 -343 -218 0
1 -343 338 0
1 343 339 0
1 -343 335 0
1 -343 -442 0
1 343 -443 0
1 -343 -337 0
1 343 -444 0
1 442 218 0
1 -442 -343 0
1 -442 -338 0
1 442 339 0
1 -442 443 0
1 -442 -430 0
1 -442 337 0
1 -442 444 0
1 351 -436 0
1 351 -445 0
1 -351 339 0
1 351 -438 0
1 351 -335 0
1 -351 -340 0
1 438 351 0
1 438 -339 0
1 -438 441 0
1 438 443 0
1 -438 342 0
1 -443 -358 0
1 436 -343 0
1 -436 -446 0
1 -436 435 0
1 335 -447 0
1 335 -444 0
1 444 -432 0
1 -444 446 0
1 -444 -439 0
1 -444 -335 0
1 -444 442 0
1 -346 344 0
1 346 445 0
1 346 -345 0
1 -346 -443 0
1 -348 247 0
1 348 439 0
1 -356 -234 0
1 356 443 0
1 -356 -350 0
1 356 -448 0
1 356 -258 0
1 358 259 0
1 358 -443 0
1 358 342 0
1 -342 449 0
1 -342 438 0
1 342 -450 0
1 -445 -351 0
1 445 -357 0
1 -451 351 0
1 451 344 0
1 451 348 0
1 451 438 0
1 451 -452 0
1 451 356 0
1 451 -346 0
1 344 453 0
1 -344 454 0
1 -344 356 0
1 -344 -346 0
1 -450 -445 0
1 -450 -230 0
1 -450 354 0
1 -450 -342 0
1 450 -233 0
1 -357 352 0
1 357 -445 0
1 357 234 0
1 357 455 0
1 357 354 0
1 -357 450 0
1 357 448 0
1 365 445 0
1 -365 350 0
1 364 -445 0
1 -364 455 0
1 -448 -378 0
1 448 -361 0
1 -448 -357 0
1 -448 -222 0
1 -448 456 0
1 -448 365 0
1 -455 378 0
1 -455 361 0
1 -455 -457 0
1 455 356 0
1 350 -358 0
1 350 -458 0
1 -350 457 0
1 459 -460 0
1 459 -358 0
1 -362 248 0
1 -362 -361 0
1 361 242 0
1 -361 -249 0
1 456 363 0
1 -456 248 0
1 456 455 0
1 -456 -274 0
1 -456 -461 0
1 456 462 0
1 -456 -463 0
1 378 363 0
1 378 -360 0
1 378 359 0
1 -463 369 0
1 -463 361 0
1 -463 -364 0
1 -463 362 0
1 -463 464 0
1 -463 229 0
1 -355 361 0
1 -355 -465 0
1 -355 -464 0
1 462 460 0
1 462 466 0
1 -462 365 0
1 359 467 0
1 -359 -468 0
1 -359 365 0
1 -359 -464 0
1 -371 369 0
1 -371 -363 0
1 371 -368 0
1 371 -366 0
1 -371 249 0
1 371 -372 0
1 369 -368 0
1 369 366 0
1 -369 469 0
1 -369 -372 0
1 369 376 0
1 470 -471 0
1 470 -355 0
1 -470 366 0
1 472 -355 0
1 472 -473 0
1 -472 376 0
1 -360 -474 0
1 360 -456 0
1 360 475 0
1 360 -381 0
1 -469 470 0
1 -469 -456 0
1 -363 369 0
1 363 476 0
1 -363 378 0
1 -363 -477 0
1 -363 -466 0
1 363 -366 0
1 -363 475 0
1 366 363 0
1 -366 470 0
1 366 464 0
1 379 -375 0
1 -379 376 0
1 -379 257 0
1 -381 374 0
1 381 -379 0
1 -381 -266 0
1 381 -469 0
1 381 -478 0
1 -381 382 0
1 381 464 0
1 -385 -471 0
1 -385 289 0
1 385 -380 0
1 -385 -479 0
1 -387 480 0
1 -387 -473 0
1 -387 -478 0
1 387 -382 0
1 -370 -481 0
1 370 -478 0
1 -478 481 0
1 478 -385 0
1 -478 372 0
1 -478 -387 0
1 -473 -482 0
1 473 -483 0
1 -473 385 0
1 -473 249 0
1 -473 472 0
1 481 480 0
1 481 -389 0
1 481 -478 0
1 -481 479 0
1 481 382 0
1 481 264 0
1 399 480 0
1 399 -384 0
1 399 -389 0
1 -399 -287 0
1 399 382 0
1 -397 370 0
1 -397 398 0
1 -397 388 0
1 398 -370 0
1 -398 -380 0
1 -398 -484 0
1 -480 403 0
1 480 -394 0
1 -480 -397 0
1 480 481 0
1 -480 385 0
1 485 -397 0
1 485 480 0
1 -485 398 0
1 485 399 0
1 380 481 0
1 380 374 0
1 380 -486 0
1 -380 -479 0
1 -479 380 0
1 479 -487 0
1 -479 398 0
1 479 -387 0
1 394 -386 0
1 -394 488 0
1 -394 -407 0
1 -394 393 0
1 394 484 0
1 407 -391 0
1 407 -394 0
1 407 480 0
1 -407 -389 0
1 -407 -485 0
1 407 -388 0
1 -403 -488 0
1 403 -388 0
1 -403 484 0
1 -410 -403 0
1 410 -488 0
1 410 -409 0
1 410 -485 0
1 488 410 0
1 -488 398 0
1 -484 -403 0
1 -484 394 0
1 -484 -407 0
1 484 -264 0
1 386 394 0
1 -386 388 0
1 388 397 0
1 -388 -410 0
1 388 -407 0
1 -388 382 0
1 -424 489 0
1 -424 -415 0
1 -424 418 0
1 424 490 0
1 491 -333 0
1 -433 432 0
1 -433 -422 0
1 437 492 0
1 437 490 0
1 -489 493 0
1 -489 433 0
1 -489 441 0
1 -490 -493 0
1 -490 -424 0
1 490 -412 0
1 490 430 0
1 490 -437 0
1 494 495 0
1 -494 413 0
1 495 -496 0
1 -431 490 0
1 431 426 0
1 -431 -422 0
1 430 489 0
1 430 -492 0
1 -430 -419 0
1 430 427 0
1 -430 426 0
1 430 -422 0
1 493 423 0
1 -493 -441 0
1 493 -426 0
1 -441 -489 0
1 441 497 0
1 -441 498 0
1 -492 433 0
1 492 499 0
1 -492 439 0
1 492 -441 0
1 -492 -430 0
1 -492 -500 0
1 -422 431 0
1 422 433 0
1 422 492 0
1 422 501 0
1 -422 -441 0
1 422 -437 0
1 -422 -502 0
1 422 500 0
1 -423 503 0
1 423 -426 0
1 423 437 0
1 426 -423 0
1 -426 425 0
1 426 504 0
1 -426 -437 0
1 -447 335 0
1 -447 505 0
1 -439 497 0
1 439 -427 0
1 -439 -348 0
1 -439 -428 0
1 439 -335 0
1 -439 429 0
1 439 434 0
1 500 492 0
1 500 -497 0
1 -500 506 0
1 -501 -492 0
1 501 440 0
1 -501 506 0
1 -501 -422 0
1 501 505 0
1 -501 500 0
1 497 507 0
1 497 -419 0
1 497 508 0
1 497 441 0
1 497 498 0
1 497 509 0
1 498 -447 0
1 -498 493 0
1 -498 507 0
1 -498 -497 0
1 -498 441 0
1 -498 -509 0
1 498 510 0
1 -498 454 0
1 498 500 0
1 511 -447 0
1 -511 -493 0
1 -511 -441 0
1 -511 -512 0
1 505 447 0
1 505 511 0
1 -505 513 0
1 -505 -514 0
1 505 439 0
1 -505 441 0
1 -505 -509 0
1 454 -515 0
1 -454 -516 0
1 -446 -436 0
1 -446 -497 0
1 446 454 0
1 452 344 0
1 452 497 0
1 452 365 0
1 452 517 0
1 507 -364 0
1 507 -513 0
1 507 -497 0
1 507 451 0
1 515 -449 0
1 -515 -446 0
1 515 501 0
1 -440 449 0
1 -440 507 0
1 440 501 0
1 -440 -454 0
1 440 434 0
1 506 -518 0
1 -506 -501 0
1 506 -519 0
1 506 452 0
1 506 -454 0
1 -517 520 0
1 517 521 0
1 -517 -507 0
1 -517 506 0
1 517 -519 0
1 -517 452 0
1 453 -344 0
1 453 449 0
1 -453 -515 0
1 453 522 0
1 -453 -523 0
1 453 -451 0
1 -453 -342 0
1 -453 -509 0
1 453 350 0
1 -449 524 0
1 -449 -518 0
1 449 459 0
1 -449 -523 0
1 -461 525 0
1 -461 -526 0
1 -461 440 0
1 -527 524 0
1 -527 -528 0
1 -527 -529 0
1 -527 522 0
1 527 526 0
1 527 350 0
1 -523 -467 0
1 -523 460 0
1 523 528 0
1 523 -530 0
1 523 -531 0
1 -528 527 0
1 -528 -449 0
1 528 530 0
1 -528 -452 0
1 -522 532 0
1 522 -520 0
1 -522 507 0
1 -522 -530 0
1 522 461 0
1 522 533 0
1 524 520 0
1 -524 -527 0
1 524 -449 0
1 524 -507 0
1 -457 459 0
1 457 -534 0
1 457 448 0
1 -457 462 0
1 460 528 0
1 -460 -535 0
1 -460 -459 0
1 460 448 0
1 -468 -528 0
1 468 -535 0
1 468 359 0
1 -468 470 0
1 -468 -458 0
1 468 536 0
1 468 -462 0
1 467 -532 0
1 467 535 0
1 -467 -537 0
1 -467 -468 0
1 -467 -472 0
1 -526 460 0
1 -526 -538 0
1 -526 -468 0
1 526 539 0
1 -529 -527 0
1 529 540 0
1 529 477 0
1 -529 -526 0
1 534 -468 0
1 534 -461 0
1 -534 533 0
1 535 344 0
1 535 -541 0
1 -535 -530 0
1 535 -534 0
1 -466 542 0
1 -466 359 0
1 466 366 0
1 -466 526 0
1 466 -464 0
1 -466 463 0
1 -464 466 0
1 -464 536 0
1 464 381 0
1 464 -463 0
1 -477 -542 0
1 477 385 0
1 -477 -465 0
1 477 526 0
1 -543 -544 0
1 -543 529 0
1 -543 545 0
1 543 -366 0
1 543 458 0
1 536 -467 0
1 -536 -468 0
1 537 -455 0
1 537 477 0
1 -537 466 0
1 -537 468 0
1 537 546 0
1 -537 -543 0
1 -537 -464 0
1 -458 467 0
1 458 -547 0
1 -458 548 0
1 458 477 0
1 458 549 0
1 -458 -543 0
1 -542 -477 0
1 -542 543 0
1 483 360 0
1 483 481 0
1 -483 537 0
1 483 -475 0
1 483 536 0
1 -475 360 0
1 -475 -545 0
1 -475 -465 0
1 475 473 0
1 -475 399 0
1 -550 544 0
1 -550 -476 0
1 550 471 0
1 -550 -473 0
1 550 551 0
1 -546 552 0
1 -546 -473 0
1 -546 -549 0
1 -546 536 0
1 -544 -553 0
1 544 -465 0
1 -544 -487 0
1 465 -544 0
1 465 -553 0
1 -465 -482 0
1 -465 477 0
1 551 -550 0
1 551 483 0
1 -551 -545 0
1 -551 -462 0
1 -545 483 0
1 482 -471 0
1 -482 547 0
1 486 -482 0
1 -486 380 0
1 -486 -554 0
1 -486 -478 0
1 -486 -479 0
1 -553 403 0
1 -553 -474 0
1 553 465 0
1 -553 552 0
1 553 -487 0
1 -474 546 0
1 -554 -487 0
1 476 553 0
1 -476 550 0
1 476 552 0
1 476 -546 0
1 -552 476 0
1 -552 482 0
1 -552 487 0
1 -552 486 0
1 552 -546 0
1 516 555 0
1 516 -556 0
1 -516 423 0
1 516 -511 0
1 -516 -514 0
1 -516 -496 0
1 516 557 0
1 516 -454 0
1 514 -556 0
1 -514 -511 0
1 -514 -496 0
1 -512 503 0
1 512 -511 0
1 -512 513 0
1 -513 511 0
1 -556 558 0
1 556 -514 0
1 556 557 0
1 556 525 0
1 -557 -521 0
1 -557 -514 0
1 557 516 0
1 -555 559 0
1 -555 514 0
1 555 -496 0
1 555 -516 0
1 496 513 0
1 -496 560 0
1 -496 516 0
1 509 556 0
1 -509 -505 0
1 -509 -499 0
1 509 -453 0
1 509 -517 0
1 518 -499 0
1 -518 504 0
1 518 502 0
1 -525 -556 0
1 -525 521 0
1 -525 -506 0
1 525 557 0
1 -525 -502 0
1 -525 -517 0
1 -521 -557 0
1 -521 -504 0
1 -521 561 0
1 499 525 0
1 503 521 0
1 503 562 0
1 -503 -513 0
1 -503 -563 0
1 503 512 0
1 504 -521 0
1 504 -563 0
1 504 -564 0
1 504 509 0
1 -519 499 0
1 -519 506 0
1 519 -510 0
1 -519 440 0
1 520 499 0
1 -520 -506 0
1 -520 515 0
1 520 519 0
1 520 -502 0
1 -520 440 0
1 -565 -532 0
1 -565 -499 0
1 565 -508 0
1 -565 -566 0
1 565 567 0
1 565 522 0
1 565 -502 0
1 -532 -567 0
1 532 565 0
1 -532 -502 0
1 508 -568 0
1 508 -530 0
1 -508 519 0
1 -508 510 0
1 -508 -569 0
1 -510 532 0
1 510 520 0
1 -510 521 0
1 510 565 0
1 510 -519 0
1 -510 570 0
1 510 -569 0
1 510 -533 0
1 571 -568 0
1 -561 520 0
1 561 521 0
1 -561 571 0
1 561 -572 0
1 561 -573 0
1 561 -574 0
1 -530 -528 0
1 -530 -535 0
1 530 -522 0
1 530 -567 0
1 -530 575 0
1 533 -508 0
1 -533 530 0
1 533 -567 0
1 533 566 0
1 533 -534 0
1 -533 510 0
1 541 576 0
1 541 508 0
1 -541 -575 0
1 -569 -535 0
1 569 -508 0
1 -569 -566 0
1 569 577 0
1 569 534 0
1 -567 -515 0
1 567 -539 0
1 567 -533 0
1 567 578 0
1 -578 -548 0
1 578 -567 0
1 578 533 0
1 -566 579 0
1 -566 569 0
1 -575 -532 0
1 -575 -530 0
1 575 579 0
1 538 576 0
1 538 529 0
1 -538 483 0
1 538 -577 0
1 -538 -534 0
1 538 -539 0
1 -538 578 0
1 539 -542 0
1 -539 -538 0
1 -539 -531 0
1 -539 570 0
1 -539 578 0
1 -548 -550 0
1 548 542 0
1 -548 577 0
1 -548 -580 0
1 549 581 0
1 -549 580 0
1 -549 582 0
1 -531 583 0
1 531 548 0
1 531 -541 0
1 -531 523 0
1 -531 549 0
1 531 569 0
1 576 -541 0
1 576 -531 0
1 -577 522 0
1 577 539 0
1 -584 -524 0
1 -584 579 0
1 584 569 0
1 -547 -482 0
1 -547 540 0
1 -547 -545 0
1 547 -536 0
1 -585 540 0
1 -585 -531 0
1 -585 580 0
1 585 -458 0
1 585 536 0
1 -583 -553 0
1 583 545 0
1 -583 580 0
1 -583 551 0
1 586 -540 0
1 582 547 0
1 -582 548 0
1 582 586 0
1 -582 -526 0
1 540 529 0
1 -540 547 0
1 -540 -549 0
1 -580 583 0
1 -580 -549 0
1 -581 -583 0
1 -581 548 0
1 -581 -586 0
1 581 585 0
1 -563 499 0
1 563 -530 0
1 -563 -587 0
1 563 -504 0
1 -563 -502 0
1 -563 574 0
1 574 -499 0
1 -574 -587 0
1 -574 533 0
1 588 -589 0
1 588 -560 0
1 -573 -562 0
1 -573 -588 0
1 558 -590 0
1 558 -570 0
1 -587 -568 0
1 -587 563 0
1 -587 573 0
1 587 574 0
1 559 555 0
1 -559 -588 0
1 559 573 0
1 560 -588 0
1 560 563 0
1 -568 -558 0
1 568 562 0
1 -568 -538 0
1 -568 587 0
1 570 -558 0
1 -570 568 0
1 570 -561 0
1 -570 -575 0
1 -590 566 0
1 -590 587 0
1 590 -591 0
1 -590 -592 0
1 592 562 0
1 -592 -590 0
1 -592 -593 0
1 -592 564 0
1 -592 -591 0
1 -589 590 0
1 -589 -591 0
1 -589 568 0
1 589 570 0
1 591 588 0
1 591 -594 0
1 591 502 0
1 -564 573 0
1 -595 596 0
1 -595 566 0
1 595 -567 0
1 -595 577 0
1 -595 572 0
1 595 -597 0
1 -579 -589 0
1 579 -577 0
1 579 -585 0
1 579 -572 0
1 -579 575 0
1 598 596 0
1 -598 572 0
1 -598 597 0
1 594 -584 0
1 594 598 0
1 594 577 0
1 593 -598 0
1 -593 -508 0
1 -593 -594 0
1 593 597 0
1 -597 598 0
1 -597 595 0
1 597 -590 0
1 597 -593 0
1 597 -594 0
1 597 -579 0
1 -597 -592 0
1 -596 571 0
1 572 590 0
1 572 594 0
